
  19    0


   0  10 2 3 4 5 6 7 8 9 17 18 
   5   4 16 15 12 10 
   1   2 14 10 
   5   2 11 10 
   4   1 13 
  10   1 12 
   4   1 11 
   9   1 10 
   1   1 10 
  10   1 19
   4   1 19
   3   1 19
   4   1 19
  10   1 19
   3   1 19
   6   1 19
   4   1 19
   9   1 19
   0   0 
